     Program PWSCF v.7.2 starts on 16Oct2023 at 10:16: 6

     Waiting for input...
     Reading input from standard input

     Current dimensions of program PWSCF are:
     Max number of different atomic species (ntypx) = 10
     Max number of k-points (npk) =  40000
     Max angular momentum in pseudopotentials (lmaxx) =  4

     K-points division:     npool     =      16
     R & G space division:  proc/nbgrp/npool/nimage =     140
     Subspace diagonalization in iterative solution of the eigenvalue problem:
     a serial algorithm will be used

     Using Slab Decomposition

     bravais-lattice index     =            4
     lattice parameter (alat)  =       6.2738  a.u.
     unit-cell volume          =    1288.2966 (a.u.)^3
     number of atoms/cell      =            3
     number of atomic types    =            2
     number of electrons       =        40.00
     number of Kohn-Sham states=           40
     kinetic-energy cutoff     =      85.0000  Ry
     charge density cutoff     =     340.0000  Ry
     scf convergence threshold =      1.0E-10
     mixing beta               =       0.7000
     number of iterations used =            8  plain     mixing
     energy convergence thresh.=      1.0E-08
     force convergence thresh. =      1.0E-05
     press convergence thresh. =      5.0E-01
     Exchange-correlation= PBE
                           (   1   4   3   4   0   0   0)
     nstep                     =           50

     Non magnetic calculation with spin-orbit

     celldm(1)=   6.273764  celldm(2)=   0.000000  celldm(3)=   6.024218
     celldm(4)=   0.000000  celldm(5)=   0.000000  celldm(6)=   0.000000

     crystal axes: (cart. coord. in units of alat)
               a(1) = (   1.000000   0.000000   0.000000 )
               a(2) = (  -0.500000   0.866025   0.000000 )
               a(3) = (   0.000000   0.000000   6.024218 )

     reciprocal axes: (cart. coord. in units 2 pi/alat)
               b(1) = (  1.000000  0.577350  0.000000 )
               b(2) = (  0.000000  1.154701  0.000000 )
               b(3) = (  0.000000  0.000000  0.165997 )

     PseudoPot. # 1 for W  read from file:
     ./pp/W.upf
     MD5 check sum: db67cb0d1e4258a1e3a8a357a2b3a3f2
     Pseudo is Norm-conserving, Zval = 28.0
     Generated using ONCVPSP code by D. R. Hamann
     Using radial grid of 1396 points, 14 beta functions with:
                l(1) =   0
                l(2) =   0
                l(3) =   1
                l(4) =   1
                l(5) =   1
                l(6) =   1
                l(7) =   2
                l(8) =   2
                l(9) =   2
               l(10) =   2
               l(11) =   3
               l(12) =   3
               l(13) =   3
               l(14) =   3

     PseudoPot. # 2 for Se read from file:
     ./pp/Se.upf
     MD5 check sum: cfe1483cd39788255e734f67871220b5
     Pseudo is Norm-conserving, Zval =  6.0
     Generated using ONCVPSP code by D. R. Hamann
     Using radial grid of 1214 points, 10 beta functions with:
                l(1) =   0
                l(2) =   0
                l(3) =   1
                l(4) =   1
                l(5) =   1
                l(6) =   1
                l(7) =   2
                l(8) =   2
                l(9) =   2
               l(10) =   2

     atomic species   valence    mass     pseudopotential
        W             28.00   183.84000     W ( 1.00)
        Se             6.00    78.96000     Se( 1.00)

      6 Sym. Ops. (no inversion) found

   Cartesian axes

     site n.     atom                  positions (alat units)
         1           W   tau(   1) = (  -0.0000000   0.5773503   1.0344477  )
         2           Se  tau(   2) = (   0.5000000   0.2886751   1.5351237  )
         3           Se  tau(   3) = (   0.5000000   0.2886751   0.5337717  )

     number of k points=    27
                       cart. coord. in units 2pi/alat
        k(    1) = (   0.0000000   0.0000000   0.0000000), wk =   0.0044444
        k(    2) = (   0.0000000   0.0769800   0.0000000), wk =   0.0266667
        k(    3) = (   0.0000000   0.1539601   0.0000000), wk =   0.0266667
        k(    4) = (   0.0000000   0.2309401   0.0000000), wk =   0.0266667
        k(    5) = (   0.0000000   0.3079201   0.0000000), wk =   0.0266667
        k(    6) = (   0.0000000   0.3849002   0.0000000), wk =   0.0266667
        k(    7) = (   0.0000000   0.4618802   0.0000000), wk =   0.0266667
        k(    8) = (   0.0000000   0.5388603   0.0000000), wk =   0.0266667
        k(    9) = (   0.0666667   0.1154701   0.0000000), wk =   0.0266667
        k(   10) = (   0.0666667   0.1924501   0.0000000), wk =   0.0533333
        k(   11) = (   0.0666667   0.2694301   0.0000000), wk =   0.0533333
        k(   12) = (   0.0666667   0.3464102   0.0000000), wk =   0.0533333
        k(   13) = (   0.0666667   0.4233902   0.0000000), wk =   0.0533333
        k(   14) = (   0.0666667   0.5003702   0.0000000), wk =   0.0533333
        k(   15) = (   0.0666667   0.5773503   0.0000000), wk =   0.0266667
        k(   16) = (   0.1333333   0.2309401   0.0000000), wk =   0.0266667
        k(   17) = (   0.1333333   0.3079201   0.0000000), wk =   0.0533333
        k(   18) = (   0.1333333   0.3849002   0.0000000), wk =   0.0533333
        k(   19) = (   0.1333333   0.4618802   0.0000000), wk =   0.0533333
        k(   20) = (   0.1333333   0.5388603   0.0000000), wk =   0.0533333
        k(   21) = (   0.2000000   0.3464102   0.0000000), wk =   0.0266667
        k(   22) = (   0.2000000   0.4233902   0.0000000), wk =   0.0533333
        k(   23) = (   0.2000000   0.5003702   0.0000000), wk =   0.0533333
        k(   24) = (   0.2000000   0.5773503   0.0000000), wk =   0.0266667
        k(   25) = (   0.2666667   0.4618802   0.0000000), wk =   0.0266667
        k(   26) = (   0.2666667   0.5388603   0.0000000), wk =   0.0533333
        k(   27) = (   0.3333333   0.5773503   0.0000000), wk =   0.0088889

     Initial potential from superposition of free atoms

     starting charge      39.9993, renormalised to      40.0000

     negative rho (up, down):  8.446E-07 0.000E+00
     Starting wfcs are   50 randomized atomic wfcs

     Self-consistent Calculation

     iteration #  1     ecut=    85.00 Ry     beta= 0.70
     Davidson diagonalization with overlap
     ethr =  1.00E-02,  avg # of iterations =  2.0

     Threshold (ethr) on eigenvalues was too large:
     Diagonalizing with lowered threshold

     Davidson diagonalization with overlap
     ethr =  1.79E-04,  avg # of iterations =  2.3

     total energy              =    -581.84456136 Ry
     estimated scf accuracy    <       0.07383265 Ry

[...]

     End of self-consistent calculation

          k = 0.0000 0.0000 0.0000 ( 17037 PWs)   bands (ev):

   -72.8254 -72.8254 -44.2301 -44.2301 -34.4929 -34.4929 -34.3938 -34.3938
   -28.3311 -28.3311 -28.3209 -28.3209 -28.2709 -28.2709 -26.1011 -26.1011
   -26.0924 -26.0924 -26.0602 -26.0602 -26.0314 -26.0314 -13.7093 -13.7093
   -12.4315 -12.4315  -5.1165  -5.1165  -1.5090  -1.5090  -1.3775  -1.3775
    -1.0071  -1.0071  -0.4680  -0.4680  -0.0743  -0.0743   0.8365   0.8365

[...]

     highest occupied level (ev):     1.2689

!    total energy              =    -581.86677070 Ry
     estimated scf accuracy    <          2.3E-11 Ry

     The total energy is the sum of the following terms:
     one-electron contribution =   -2764.97428055 Ry
     hartree contribution      =    1385.27252370 Ry
     xc contribution           =     -50.88863432 Ry
     ewald contribution        =     848.72362048 Ry

     convergence has been achieved in  11 iterations

     Forces acting on atoms (cartesian axes, Ry/au):

     atom    1 type  1   force =     0.00000000    0.00000000    0.00001899
     atom    2 type  2   force =     0.00000000    0.00000000    0.01305347
     atom    3 type  2   force =     0.00000000    0.00000000   -0.01307246
     The non-local contrib.  to forces
     atom    1 type  1   force =     0.00000000    0.00000000    0.00002396
     atom    2 type  2   force =     0.00000000    0.00000000   -0.35432393
     atom    3 type  2   force =     0.00000000    0.00000000    0.35432060
     The ionic contribution  to forces
     atom    1 type  1   force =     0.00000047   -0.00000027   -0.00000078
     atom    2 type  2   force =    -0.00000023    0.00000013   56.18125814
     atom    3 type  2   force =    -0.00000023    0.00000013  -56.18125736
     The local contribution  to forces
     atom    1 type  1   force =     0.00000076   -0.00002673   -0.00003554
     atom    2 type  2   force =     0.00000006    0.00000003  -55.81387030
     atom    3 type  2   force =     0.00000006    0.00000003   55.81387522
     The core correction contribution to forces
     atom    1 type  1   force =     0.00000000    0.00000000    0.00000000
     atom    2 type  2   force =     0.00000000    0.00000000    0.00000000
     atom    3 type  2   force =     0.00000000    0.00000000    0.00000000
     The Hubbard contrib.    to forces
     atom    1 type  1   force =     0.00000000    0.00000000    0.00000000
     atom    2 type  2   force =     0.00000000    0.00000000    0.00000000
     atom    3 type  2   force =     0.00000000    0.00000000    0.00000000
     The SCF correction term to forces
     atom    1 type  1   force =     0.00000000   -0.00000000    0.00004132
     atom    2 type  2   force =    -0.00000000    0.00000000   -0.00000047
     atom    3 type  2   force =    -0.00000000    0.00000000   -0.00000095

     Total force =     0.018474     Total SCF correction =     0.000041

     Computing stress (Cartesian axis) and pressure

          total   stress  (Ry/bohr**3)                   (kbar)     P=        5.67
   0.00002595  -0.00000000   0.00000000            3.82       -0.00        0.00
  -0.00000000   0.00002595   0.00000000           -0.00        3.82        0.00
   0.00000000   0.00000000   0.00006381            0.00        0.00        9.39

     BFGS Geometry Optimization
     Energy error            =      0.0E+00 Ry
     Gradient error          =      1.3E-02 Ry/Bohr
     Cell gradient error     =      3.8E+00 kbar

     number of scf cycles    =   1
     number of bfgs steps    =   0

     enthalpy           new  =    -581.8667706970 Ry

     new trust radius        =       0.0130724604 bohr
ibrav =      4
 celldm(1) =      6.27783465
 celldm(3) =      6.02031188
Input lattice vectors:
     1.00064884    -0.00000000     0.00000000
    -0.50032442     0.86658731     0.00000000
     0.00000000     0.00000000     6.02421807
New lattice vectors in INITIAL alat:
     1.00064884     0.00000000     0.00000000
    -0.50032442     0.86658731     0.00000000
     0.00000000     0.00000000     6.02421807
New lattice vectors in NEW alat (for information only):
     1.00000000     0.00000000     0.00000000
    -0.50000000     0.86602540     0.00000000
     0.00000000     0.00000000     6.02031188
Discrepancy in bohr =     0.000000    0.000000    0.000000
     new conv_thr            =            1.0E-10 Ry

     new unit-cell volume =   1289.96890 a.u.^3 (   191.15367 Ang^3 )
     density =      2.96885 g/cm^3

CELL_PARAMETERS (alat=  6.27376400)
   1.000648836   0.000000000   0.000000000
  -0.500324418   0.866587312   0.000000000
   0.000000000   0.000000000   6.024218072

ATOMIC_POSITIONS (crystal)
W             0.3333333430        0.6666666870        0.1717153445
Se            0.6666666870        0.3333333430        0.2551707629
Se            0.6666666870        0.3333333430        0.0882584336

     Writing config-only to output data dir ./WSe2.save/
     NEW-OLD atomic charge density approx. for the potential
     extrapolated charge   40.05186, renormalised to   40.00000

[...]

     Energy error            =      3.1E-04 Ry
     Gradient error          =      7.8E-03 Ry/Bohr
     Cell gradient error     =      2.0E+00 kbar

[...]

     enthalpy           old  =    -581.8667706970 Ry
     enthalpy           new  =    -581.8670760861 Ry

     CASE: enthalpy          _new < enthalpy          _old

[...]

     Total force =     0.000141     Total SCF correction =     0.000019
     SCF correction compared to forces is large: reduce conv_thr to get better values

[...]

     WARNING: bfgs curvature condition failed, Theta= 0.980
     new trust radius        =       0.0007084467 bohr
ibrav =      4
 celldm(1) =      6.28124765
 celldm(3) =      6.01704066
Input lattice vectors:
     1.00119285     0.00000000     0.00000000
    -0.50059642     0.86705844     0.00000000
     0.00000000     0.00000000     6.02421807
New lattice vectors in INITIAL alat:
     1.00119285     0.00000000     0.00000000
    -0.50059642     0.86705844     0.00000000
     0.00000000     0.00000000     6.02421807
New lattice vectors in NEW alat (for information only):
     1.00000000     0.00000000     0.00000000
    -0.50000000     0.86602540     0.00000000
     0.00000000     0.00000000     6.01704066
Discrepancy in bohr =     0.000000    0.000000    0.000000
     new conv_thr            =            1.0E-11 Ry

[...]

     Total force =     0.000019     Total SCF correction =     0.000002

[...]

     Energy error            =      6.9E-07 Ry
     Gradient error          =      1.3E-05 Ry/Bohr
     Cell gradient error     =      1.1E-03 kbar

     number of scf cycles    =   9
     number of bfgs steps    =   8

     enthalpy           old  =    -581.8672488830 Ry
     enthalpy           new  =    -581.8672495724 Ry

     CASE: enthalpy          _new < enthalpy          _old

     small trust_radius: resetting bfgs history

     new trust radius        =       0.0000125406 bohr
ibrav =      4
 celldm(1) =      6.27683497
 celldm(3) =      6.02127070
Input lattice vectors:
     1.00048949     0.00000000     0.00000000
    -0.50024475     0.86644932     0.00000000
     0.00000000     0.00000000     6.02421807
New lattice vectors in INITIAL alat:
     1.00048949     0.00000000     0.00000000
    -0.50024475     0.86644932     0.00000000
     0.00000000     0.00000000     6.02421807
New lattice vectors in NEW alat (for information only):
     1.00000000     0.00000000     0.00000000
    -0.50000000     0.86602540     0.00000000
     0.00000000     0.00000000     6.02127070
Discrepancy in bohr =     0.000000    0.000000    0.000000
     new conv_thr            =            1.3E-12 Ry

     new unit-cell volume =   1289.55810 a.u.^3 (   191.09280 Ang^3 )
     density =      2.96979 g/cm^3

[...]

ATOMIC_POSITIONS (crystal)
W             0.3333333430        0.6666666870        0.1717155263
Se            0.6666666870        0.3333333430        0.2557707349
Se            0.6666666870        0.3333333430        0.0876582798

     Writing config-only to output data dir ./WSe2.save/
     NEW-OLD atomic charge density approx. for the potential
     extrapolated charge   39.99998, renormalised to   40.00000

[...]

     Threshold (ethr) on eigenvalues was too large:
     Diagonalizing with lowered threshold

     Davidson diagonalization with overlap
     ethr =  1.79E-12,  avg # of iterations =  4.0

[...]

     Energy error            =      2.1E-10 Ry
     Gradient error          =      7.3E-06 Ry/Bohr
     Cell gradient error     =      2.8E-03 kbar
ibrav =      4
 celldm(1) =      6.27683497
 celldm(3) =      6.02127070
Input lattice vectors:
     1.00048949     0.00000000     0.00000000
    -0.50024475     0.86644932     0.00000000
     0.00000000     0.00000000     6.02421807
New lattice vectors in INITIAL alat:
     1.00048949     0.00000000     0.00000000
    -0.50024475     0.86644932     0.00000000
     0.00000000     0.00000000     6.02421807
New lattice vectors in NEW alat (for information only):
     1.00000000     0.00000000     0.00000000
    -0.50000000     0.86602540     0.00000000
     0.00000000     0.00000000     6.02127070
Discrepancy in bohr =     0.000000    0.000000    0.000000

     bfgs converged in  10 scf cycles and   9 bfgs steps
     (criteria: energy <  1.0E-08 Ry, force <  1.0E-05 Ry/Bohr, cell <  5.0E-01 kbar)

     End of BFGS Geometry Optimization

     Final enthalpy           =    -581.8672495726 Ry

     File ./WSe2.bfgs deleted, as requested
Begin final coordinates
     new unit-cell volume =   1289.55810 a.u.^3 (   191.09280 Ang^3 )
     density =      2.96979 g/cm^3

CELL_PARAMETERS (alat=  6.27376400)
   1.000489493   0.000000000   0.000000000
  -0.500244746   0.866449317   0.000000000
   0.000000000   0.000000000   6.024218072

ATOMIC_POSITIONS (crystal)
W             0.3333333430        0.6666666870        0.1717155263
Se            0.6666666870        0.3333333430        0.2557707349
Se            0.6666666870        0.3333333430        0.0876582798
End final coordinates

     Writing config-only to output data dir ./WSe2.save/

     Final scf calculation at the relaxed structure.
     The G-vectors are recalculated for the final unit cell
     Results may differ from those at the preceding step.

     Using Slab Decomposition

     bravais-lattice index     =            4
     lattice parameter (alat)  =       6.2738  a.u.
     unit-cell volume          =    1289.5581 (a.u.)^3
     number of atoms/cell      =            3
     number of atomic types    =            2
     number of electrons       =        40.00
     number of Kohn-Sham states=           40
     kinetic-energy cutoff     =      85.0000  Ry
     charge density cutoff     =     340.0000  Ry
     scf convergence threshold =      1.3E-12
     mixing beta               =       0.7000
     number of iterations used =            8  plain     mixing
     press convergence thresh. =      5.0E-01
     Exchange-correlation= PBE
                           (   1   4   3   4   0   0   0)
     Non magnetic calculation with spin-orbit

     celldm(1)=   6.273764  celldm(2)=   0.000000  celldm(3)=   6.024218
     celldm(4)=   0.000000  celldm(5)=   0.000000  celldm(6)=   0.000000

     crystal axes: (cart. coord. in units of alat)
               a(1) = (   1.000489   0.000000   0.000000 )
               a(2) = (  -0.500245   0.866449   0.000000 )
               a(3) = (   0.000000   0.000000   6.024218 )

     reciprocal axes: (cart. coord. in units 2 pi/alat)
               b(1) = (  0.999511  0.577068  0.000000 )
               b(2) = (  0.000000  1.154136  0.000000 )
               b(3) = (  0.000000  0.000000  0.165997 )

     PseudoPot. # 1 for W  read from file:
     ./pp/W.upf
     MD5 check sum: db67cb0d1e4258a1e3a8a357a2b3a3f2
     Pseudo is Norm-conserving, Zval = 28.0
     Generated using ONCVPSP code by D. R. Hamann
     Using radial grid of 1396 points, 14 beta functions with:
                l(1) =   0
                l(2) =   0
                l(3) =   1
                l(4) =   1
                l(5) =   1
                l(6) =   1
                l(7) =   2
                l(8) =   2
                l(9) =   2
               l(10) =   2
               l(11) =   3
               l(12) =   3
               l(13) =   3
               l(14) =   3

     PseudoPot. # 2 for Se read from file:
     ./pp/Se.upf
     MD5 check sum: cfe1483cd39788255e734f67871220b5
     Pseudo is Norm-conserving, Zval =  6.0
     Generated using ONCVPSP code by D. R. Hamann
     Using radial grid of 1214 points, 10 beta functions with:
                l(1) =   0
                l(2) =   0
                l(3) =   1
                l(4) =   1
                l(5) =   1
                l(6) =   1
                l(7) =   2
                l(8) =   2
                l(9) =   2
               l(10) =   2

     atomic species   valence    mass     pseudopotential
        W             28.00   183.84000     W ( 1.00)
        Se             6.00    78.96000     Se( 1.00)

      6 Sym. Ops. (no inversion) found

   Cartesian axes

     site n.     atom                  positions (alat units)
         1           W   tau(   1) = (  -0.0000000   0.5776329   1.0344518  )
         2           Se  tau(   2) = (   0.5002448   0.2888164   1.5408187  )
         3           Se  tau(   3) = (   0.5002448   0.2888164   0.5280726  )

     number of k points=    27
                       cart. coord. in units 2pi/alat
        k(    1) = (   0.0000000   0.0000000   0.0000000), wk =   0.0044444
        k(    2) = (   0.0000000   0.0769424   0.0000000), wk =   0.0266667
        k(    3) = (   0.0000000   0.1538847   0.0000000), wk =   0.0266667
        k(    4) = (   0.0000000   0.2308271   0.0000000), wk =   0.0266667
        k(    5) = (   0.0000000   0.3077695   0.0000000), wk =   0.0266667
        k(    6) = (   0.0000000   0.3847119   0.0000000), wk =   0.0266667
        k(    7) = (   0.0000000   0.4616542   0.0000000), wk =   0.0266667
        k(    8) = (   0.0000000   0.5385966   0.0000000), wk =   0.0266667
        k(    9) = (   0.0666340   0.1154136   0.0000000), wk =   0.0266667
        k(   10) = (   0.0666340   0.1923559   0.0000000), wk =   0.0533333
        k(   11) = (   0.0666340   0.2692983   0.0000000), wk =   0.0533333
        k(   12) = (   0.0666340   0.3462407   0.0000000), wk =   0.0533333
        k(   13) = (   0.0666340   0.4231831   0.0000000), wk =   0.0533333
        k(   14) = (   0.0666340   0.5001254   0.0000000), wk =   0.0533333
        k(   15) = (   0.0666340   0.5770678   0.0000000), wk =   0.0266667
        k(   16) = (   0.1332681   0.2308271   0.0000000), wk =   0.0266667
        k(   17) = (   0.1332681   0.3077695   0.0000000), wk =   0.0533333
        k(   18) = (   0.1332681   0.3847119   0.0000000), wk =   0.0533333
        k(   19) = (   0.1332681   0.4616542   0.0000000), wk =   0.0533333
        k(   20) = (   0.1332681   0.5385966   0.0000000), wk =   0.0533333
        k(   21) = (   0.1999021   0.3462407   0.0000000), wk =   0.0266667
        k(   22) = (   0.1999021   0.4231831   0.0000000), wk =   0.0533333
        k(   23) = (   0.1999021   0.5001254   0.0000000), wk =   0.0533333
        k(   24) = (   0.1999021   0.5770678   0.0000000), wk =   0.0266667
        k(   25) = (   0.2665362   0.4616542   0.0000000), wk =   0.0266667
        k(   26) = (   0.2665362   0.5385966   0.0000000), wk =   0.0533333
        k(   27) = (   0.3331702   0.5770678   0.0000000), wk =   0.0088889

     Initial potential from superposition of free atoms

     starting charge      39.9993, renormalised to      40.0000

     negative rho (up, down):  8.343E-07 0.000E+00
     Starting wfcs are   50 randomized atomic wfcs

     Self-consistent Calculation

[...]

     negative rho (up, down):  1.224E-07 0.000E+00

[...]

     negative rho (up, down):  2.450E-08 0.000E+00

[...]

     total energy              =    -581.86724961 Ry
     estimated scf accuracy    <          3.5E-12 Ry

     iteration # 13     ecut=    85.00 Ry     beta= 0.70
     Davidson diagonalization with overlap
     ethr =  1.00E-13,  avg # of iterations =  1.1

     End of self-consistent calculation

[...]

          k = 0.3332 0.5771 0.0000 ( 17025 PWs)   bands (ev):

   -72.8233 -72.8233 -44.2785 -44.2728 -34.5957 -34.5645 -34.5174 -34.5066
   -28.3316 -28.3313 -28.3251 -28.3242 -28.2781 -28.2779 -26.1019 -26.1003
   -26.0940 -26.0933 -26.0674 -26.0671 -26.0375 -26.0373 -11.5267 -11.3846
   -11.3325 -11.3231  -4.2759  -4.2205  -4.2112  -4.0460  -3.3638  -3.2168
    -2.7315  -2.6514  -2.3264  -2.0871  -1.3419  -1.2635   0.8217   1.2874

     highest occupied level (ev):     1.2874

!    total energy              =    -581.86724961 Ry
     estimated scf accuracy    <          5.7E-13 Ry

     The total energy is the sum of the following terms:
     one-electron contribution =   -2754.76846156 Ry
     hartree contribution      =    1380.17470564 Ry
     xc contribution           =     -50.85719263 Ry
     ewald contribution        =     843.58369893 Ry

     convergence has been achieved in  13 iterations

     Forces acting on atoms (cartesian axes, Ry/au):

     atom    1 type  1   force =     0.00000000   -0.00000000   -0.00000077
     atom    2 type  2   force =     0.00000000   -0.00000000   -0.00000642
     atom    3 type  2   force =     0.00000000   -0.00000000    0.00000719
     The non-local contrib.  to forces
     atom    1 type  1   force =     0.00000000   -0.00000000    0.00004118
     atom    2 type  2   force =     0.00000000    0.00000000   -0.36237156
     atom    3 type  2   force =     0.00000000    0.00000000    0.36238517
     The ionic contribution  to forces
     atom    1 type  1   force =     0.00000045   -0.00000026    0.00009389
     atom    2 type  2   force =    -0.00000023    0.00000013   56.11114822
     atom    3 type  2   force =    -0.00000023    0.00000013  -56.11124210
     The local contribution  to forces
     atom    1 type  1   force =     0.00000076   -0.00002676   -0.00011814
     atom    2 type  2   force =     0.00000005    0.00000003  -55.74877229
     atom    3 type  2   force =     0.00000005    0.00000003   55.74887705
     The core correction contribution to forces
     atom    1 type  1   force =     0.00000000    0.00000000    0.00000000
     atom    2 type  2   force =     0.00000000    0.00000000    0.00000000
     atom    3 type  2   force =     0.00000000    0.00000000    0.00000000
     The Hubbard contrib.    to forces
     atom    1 type  1   force =     0.00000000    0.00000000    0.00000000
     atom    2 type  2   force =     0.00000000    0.00000000    0.00000000
     atom    3 type  2   force =     0.00000000    0.00000000    0.00000000
     The SCF correction term to forces
     atom    1 type  1   force =     0.00000000   -0.00000000   -0.00000616
     atom    2 type  2   force =    -0.00000000    0.00000000    0.00000075
     atom    3 type  2   force =    -0.00000000    0.00000000   -0.00000139

     Total force =     0.000010     Total SCF correction =     0.000006
     SCF correction compared to forces is large: reduce conv_thr to get better values

     Computing stress (Cartesian axis) and pressure

          total   stress  (Ry/bohr**3)                   (kbar)     P=       -0.00
  -0.00000002   0.00000000   0.00000000           -0.00        0.00        0.00
   0.00000000  -0.00000002   0.00000000            0.00       -0.00        0.00
   0.00000000  -0.00000000  -0.00000003            0.00       -0.00       -0.00

     Writing all to output data dir ./WSe2.save/

     General routines

     Parallel routines

   This run was terminated on:  10:16:48  16Oct2023

   JOB DONE.
TACC:  Shutdown complete. Exiting.