     Program PHONON v.6.7MaX starts on 17Oct2023 at  1:53:57

     K-points division:     npool     =      16
     R & G space division:  proc/nbgrp/npool/nimage =     140
     Reading input from ph.in
     Message from routine ph_restart_set_filename :
     cannot open file for reading or writing
     Message from routine ph_restart_set_filename :
     cannot open file for reading or writing
     Run is not recoverable starting from scratch

     Reading xml data from directory:

     ./WSe2.save/
     Message from routine read_pp_mesh:
     mesh size missing, using the one in header
     Message from routine read_pp_mesh:
     mesh size missing, using the one in header

     IMPORTANT: XC functional enforced from input :
     Exchange-correlation= PBE
                           (   1   4   3   4   0   0   0)
     Any further DFT definition will be discarded
     Please, verify this is what you really want

     Reading collected, re-writing distributed wavefunctions

     Dynamical matrices for ( 9, 9, 1)  uniform grid of q-points
     (  12 q-points):
       N         xq(1)         xq(2)         xq(3)
       1   0.000000000   0.000000000   0.000000000
       2   0.000000000   0.128300060   0.000000000
       3   0.000000000   0.256600120   0.000000000
       4   0.000000000   0.384900180   0.000000000
       5   0.000000000   0.513200239   0.000000000
       6   0.111111111   0.192450090   0.000000000
       7   0.111111111   0.320750150   0.000000000
       8   0.111111111   0.449050209   0.000000000
       9   0.111111111   0.577350269   0.000000000
      10   0.222222222   0.384900179   0.000000000
      11   0.222222222   0.513200239   0.000000000
      12   0.333333333   0.577350269   0.000000000

     Saving dvscf to file. Distribute only q points, not irreducible represetations.

     Calculation of q =    0.0000000   0.0000000   0.0000000

     --

     bravais-lattice index     =            0
     lattice parameter (alat)  =       6.2768  a.u.
     unit-cell volume          =    1289.5566 (a.u.)^3
     number of atoms/cell      =            3
     number of atomic types    =            2
     kinetic-energy cut-off    =      85.0000  Ry
     charge density cut-off    =     340.0000  Ry
     convergence threshold     =      1.0E-15
     beta                      =       0.7000
     number of iterations used =            4
     Exchange-correlation= PBE
                           (   1   4   3   4   0   0   0)
     Non magnetic calculation with spin-orbit

     celldm(1)=    6.27683  celldm(2)=    0.00000  celldm(3)=    0.00000
     celldm(4)=    0.00000  celldm(5)=    0.00000  celldm(6)=    0.00000

     crystal axes: (cart. coord. in units of alat)
               a(1) = (  1.0000  0.0000  0.0000 )
               a(2) = ( -0.5000  0.8660  0.0000 )
               a(3) = (  0.0000  0.0000  6.0213 )

     reciprocal axes: (cart. coord. in units 2 pi/alat)
               b(1) = (  1.0000  0.5774  0.0000 )
               b(2) = (  0.0000  1.1547  0.0000 )
               b(3) = (  0.0000  0.0000  0.1661 )

     Atoms inside the unit cell:

     Cartesian axes

     site n.  atom      mass           positions (alat units)
        1     W  183.8400   tau(    1) = (   -0.00000    0.57735    1.03395  )
        2     Se  78.9600   tau(    2) = (    0.50000    0.28868    1.54006  )
        3     Se  78.9600   tau(    3) = (    0.50000    0.28868    0.52781  )

     Computing dynamical matrix for
                    q = (   0.0000000   0.0000000   0.0000000 )

      7 Sym.Ops. (with q -> -q+G )

     G cutoff =  339.3128  (    958 G-vectors)     FFT grid: ( 40, 40,225)
     number of k points=    27

     PseudoPot. # 1 for W  read from file:
     ./pp/W.upf
     MD5 check sum: db67cb0d1e4258a1e3a8a357a2b3a3f2
     Pseudo is Norm-conserving, Zval = 28.0
     Generated using ONCVPSP code by D. R. Hamann
     Using radial grid of 1396 points, 14 beta functions with:
                l(1) =   0
                l(2) =   0
                l(3) =   1
                l(4) =   1
                l(5) =   1
                l(6) =   1
                l(7) =   2
                l(8) =   2
                l(9) =   2
               l(10) =   2
               l(11) =   3
               l(12) =   3
               l(13) =   3
               l(14) =   3

     PseudoPot. # 2 for Se read from file:
     ./pp/Se.upf
     MD5 check sum: cfe1483cd39788255e734f67871220b5
     Pseudo is Norm-conserving, Zval =  6.0
     Generated using ONCVPSP code by D. R. Hamann
     Using radial grid of 1214 points, 10 beta functions with:
                l(1) =   0
                l(2) =   0
                l(3) =   1
                l(4) =   1
                l(5) =   1
                l(6) =   1
                l(7) =   2
                l(8) =   2
                l(9) =   2
               l(10) =   2

     Mode symmetry, C_3v (3m)   point group:

     Electric field:
     Dielectric constant
     Born effective charges in two ways

     Atomic displacements:
     There are    6 irreducible representations

     Representation     1      1 modes -  To be done

[...]

     Alpha used in Ewald sum =   2.8000

     Electric Fields Calculation

      thresh= 1.000E-02 alpha_mix =  0.700 |ddv_scf|^2 =  2.657E-04

[...]

     End of electric fields calculation

          Dielectric constant in cartesian axis

          (       5.650266382      -0.000000003       0.000000000 )
          (      -0.000000003       5.650266383       0.000000000 )
          (       0.000000000       0.000000000       1.387393010 )

          Effective charges (d Force / dE) in cartesian axis

           atom      1   W
      Ex  (       -1.15817        0.00000        0.00000 )
      Ey  (        0.00000       -1.15817        0.00000 )
      Ez  (        0.00000        0.00000       -0.11281 )
           atom      2   Se
      Ex  (        0.57886        0.00000        0.00000 )
      Ey  (        0.00000        0.57886        0.00000 )
      Ez  (        0.00000        0.00000        0.05613 )
           atom      3   Se
      Ex  (        0.57897        0.00000        0.00000 )
      Ey  (        0.00000        0.57897        0.00000 )
      Ez  (        0.00000        0.00000        0.05624 )

     Representation #   1 mode #   1

     Self-consistent Calculation

[...]

     End of self-consistent calculation

     Convergence has been achieved

[...]

     Representation #   4 modes #   4   5

[...]

     Representation #   6 modes #   8   9

[...]

     Number of q in the star =    1
     List of q in the star:
          1   0.000000000   0.000000000   0.000000000

          Dielectric constant in cartesian axis

          (       5.650266382      -0.000000003       0.000000000 )
          (      -0.000000003       5.650266383       0.000000000 )
          (       0.000000000       0.000000000       1.387393010 )

          Effective charges (d Force / dE) in cartesian axis

[...]

          Effective charges (d P / du) in cartesian axis

           atom      1   W
      Px  (       -1.15814        0.00000        0.00000 )
      Py  (        0.00000       -1.15814        0.00000 )
      Pz  (        0.00000        0.00000       -0.11286 )
           atom      2   Se
      Px  (        0.57899        0.00000        0.00000 )
      Py  (        0.00000        0.57899        0.00000 )
      Pz  (        0.00000        0.00000        0.05616 )
           atom      3   Se
      Px  (        0.57892        0.00000        0.00000 )
      Py  (        0.00000        0.57892        0.00000 )
      Pz  (        0.00000        0.00000        0.05615 )

     Diagonalizing the dynamical matrix

     q = (    0.000000000   0.000000000   0.000000000 )

     freq (    1) =      -0.299808 [THz] =     -10.000522 [cm-1]
     freq (    2) =      -0.299808 [THz] =     -10.000522 [cm-1]
     freq (    3) =      -0.090836 [THz] =      -3.029951 [cm-1]
     freq (    4) =       5.033132 [THz] =     167.887219 [cm-1]
     freq (    5) =       5.033132 [THz] =     167.887219 [cm-1]
     freq (    6) =       7.132831 [THz] =     237.925618 [cm-1]
     freq (    7) =       7.132831 [THz] =     237.925618 [cm-1]
     freq (    8) =       7.204461 [THz] =     240.314949 [cm-1]
     freq (    9) =       8.940578 [THz] =     298.225585 [cm-1]

     Mode symmetry, C_3v (3m)   point group:

     freq (   1-   2) =        -10.0  [cm-1]   --> E    L_3        I+R
     freq (   3-   3) =         -3.0  [cm-1]   --> A_1  L_1        I+R
     freq (   4-   5) =        167.9  [cm-1]   --> E    L_3        I+R
     freq (   6-   7) =        237.9  [cm-1]   --> E    L_3        I+R
     freq (   8-   8) =        240.3  [cm-1]   --> A_1  L_1        I+R
     freq (   9-   9) =        298.2  [cm-1]   --> A_1  L_1        I+R

[...]

     Subspace diagonalization in iterative solution of the eigenvalue problem:
     a serial algorithm will be used

     Title:
     --

     bravais-lattice index     =            0
     lattice parameter (alat)  =       6.2768  a.u.
     unit-cell volume          =    1289.5566 (a.u.)^3
     number of atoms/cell      =            3
     number of atomic types    =            2
     number of electrons       =        40.00
     number of Kohn-Sham states=           40
     kinetic-energy cutoff     =      85.0000  Ry
     charge density cutoff     =     340.0000  Ry
     Exchange-correlation= PBE
                           (   1   4   3   4   0   0   0)
     Non magnetic calculation with spin-orbit

[...]

     atomic species   valence    mass     pseudopotential
        W             28.00   183.84000     W ( 1.00)
        Se             6.00    78.96000     Se( 1.00)

      6 Sym. Ops. (no inversion) found

[...]

     site n.     atom                  positions (alat units)
         1           W   tau(   1) = (  -0.0000000   0.5773503   1.0339457  )
         2           Se  tau(   2) = (   0.5000000   0.2886751   1.5400648  )
         3           Se  tau(   3) = (   0.5000000   0.2886751   0.5278142  )

     number of k points=   240

     Number of k-points >= 100: set verbosity='high' to print them.

     The potential is recalculated from file :
     ./_ph0/WSe2.q_2/WSe2.save/charge-density

     Starting wfcs are   50 atomic wfcs

     Band Structure Calculation
     Davidson diagonalization with overlap

     ethr =  2.50E-11,  avg # of iterations = 15.1

     End of band structure calculation

     Number of k-points >= 100: set verbosity='high' to print the bands.

     highest occupied level (ev):     1.2874

     Writing output data file ./_ph0/WSe2.q_2/WSe2.save/

[...]

      2 Sym.Ops. (no q -> -q+G )

[...]

     Mode symmetry, C_s (m)     point group:

[...]

     Number of q in the star =    3
     List of q in the star:
          1   0.000000000   0.128300060   0.000000000
          2  -0.111111111  -0.064150030   0.000000000
          3   0.111111111  -0.064150030   0.000000000
     In addition there is the -q list:
          1   0.000000000  -0.128300060   0.000000000
          2   0.111111111   0.064150030   0.000000000
          3  -0.111111111   0.064150030   0.000000000

[...]

     freq (   1-   1) =         14.3  [cm-1]   --> A'
     freq (   2-   2) =         35.6  [cm-1]   --> A''
     freq (   3-   3) =         55.3  [cm-1]   --> A'
     freq (   4-   4) =        170.2  [cm-1]   --> A''
     freq (   5-   5) =        177.4  [cm-1]   --> A'
     freq (   6-   6) =        227.8  [cm-1]   --> A'
     freq (   7-   7) =        237.6  [cm-1]   --> A''
     freq (   8-   8) =        248.9  [cm-1]   --> A'
     freq (   9-   9) =        292.1  [cm-1]   --> A'

[...]

     freq (   1-   1) =         49.3  [cm-1]   --> A'
     freq (   2-   2) =         65.8  [cm-1]   --> A''
     freq (   3-   3) =         98.9  [cm-1]   --> A'
     freq (   4-   4) =        175.7  [cm-1]   --> A''
     freq (   5-   5) =        195.0  [cm-1]   --> A'
     freq (   6-   6) =        216.3  [cm-1]   --> A'
     freq (   7-   7) =        236.1  [cm-1]   --> A''
     freq (   8-   8) =        254.8  [cm-1]   --> A'
     freq (   9-   9) =        276.5  [cm-1]   --> A'

[...]

     freq (   1-   1) =         84.5  [cm-1]   --> A''
     freq (   2-   2) =         86.6  [cm-1]   --> A'
     freq (   3-   3) =        120.6  [cm-1]   --> A'
     freq (   4-   4) =        180.9  [cm-1]   --> A''
     freq (   5-   5) =        206.8  [cm-1]   --> A'
     freq (   6-   6) =        213.3  [cm-1]   --> A'
     freq (   7-   7) =        233.8  [cm-1]   --> A''
     freq (   8-   8) =        256.7  [cm-1]   --> A'
     freq (   9-   9) =        258.7  [cm-1]   --> A'

[...]

     Mode symmetry, C_s (m)     point group:

     freq (   1-   1) =         92.5  [cm-1]   --> A''
     freq (   2-   2) =        112.9  [cm-1]   --> A'
     freq (   3-   3) =        123.3  [cm-1]   --> A'
     freq (   4-   4) =        183.9  [cm-1]   --> A''
     freq (   5-   5) =        206.2  [cm-1]   --> A'
     freq (   6-   6) =        217.9  [cm-1]   --> A'
     freq (   7-   7) =        232.4  [cm-1]   --> A''
     freq (   8-   8) =        250.3  [cm-1]   --> A'
     freq (   9-   9) =        256.1  [cm-1]   --> A'

[...]

     No symmetry!

[...]

     Mode symmetry, C_1 (1)     point group:

[...]

     freq (   1-   1) =         38.8  [cm-1]   --> A
     freq (   2-   2) =         61.7  [cm-1]   --> A
     freq (   3-   3) =         86.9  [cm-1]   --> A
     freq (   4-   4) =        174.8  [cm-1]   --> A
     freq (   5-   5) =        190.1  [cm-1]   --> A
     freq (   6-   6) =        218.5  [cm-1]   --> A
     freq (   7-   7) =        237.4  [cm-1]   --> A
     freq (   8-   8) =        253.1  [cm-1]   --> A
     freq (   9-   9) =        281.2  [cm-1]   --> A

[...]

     No symmetry!

[...]

     Number of q in the star =    6
     List of q in the star:
          1   0.222222222   0.513200239   0.000000000
          2  -0.222222222   0.513200240   0.000000000
          3  -0.555555556  -0.064150030   0.000000000
          4   0.333333333  -0.449050210   0.000000000
          5   0.555555556  -0.064150030   0.000000000
          6  -0.333333333  -0.449050209   0.000000000
     In addition there is the -q list:
          1  -0.222222222  -0.513200239   0.000000000
          2   0.222222222  -0.513200240   0.000000000
          3   0.555555556   0.064150030   0.000000000
          4  -0.333333333   0.449050210   0.000000000
          5  -0.555555556   0.064150030   0.000000000
          6   0.333333333   0.449050209   0.000000000

[...]

     freq (   1-   1) =        100.9  [cm-1]   --> A
     freq (   2-   2) =        115.8  [cm-1]   --> A
     freq (   3-   3) =        126.0  [cm-1]   --> A
     freq (   4-   4) =        197.8  [cm-1]   --> A
     freq (   5-   5) =        202.8  [cm-1]   --> A
     freq (   6-   6) =        208.5  [cm-1]   --> A
     freq (   7-   7) =        241.0  [cm-1]   --> A
     freq (   8-   8) =        245.7  [cm-1]   --> A
     freq (   9-   9) =        251.2  [cm-1]   --> A

     Calculation of q =    0.3333333   0.5773503   0.0000000

     Title:
     --

     bravais-lattice index     =            0
     lattice parameter (alat)  =       6.2768  a.u.
     unit-cell volume          =    1289.5566 (a.u.)^3
     number of atoms/cell      =            3
     number of atomic types    =            2
     number of electrons       =        40.00
     number of Kohn-Sham states=           40
     kinetic-energy cutoff     =      85.0000  Ry
     charge density cutoff     =     340.0000  Ry
     Exchange-correlation= PBE
                           (   1   4   3   4   0   0   0)
     Non magnetic calculation with spin-orbit

[...]

     atomic species   valence    mass     pseudopotential
        W             28.00   183.84000     W ( 1.00)
        Se             6.00    78.96000     Se( 1.00)

      6 Sym. Ops. (no inversion) found

[...]

     site n.     atom                  positions (alat units)
         1           W   tau(   1) = (  -0.0000000   0.5773503   1.0339457  )
         2           Se  tau(   2) = (   0.5000000   0.2886751   1.5400648  )
         3           Se  tau(   3) = (   0.5000000   0.2886751   0.5278142  )

     number of k points=   154

     Number of k-points >= 100: set verbosity='high' to print them.

     The potential is recalculated from file :
     ./_ph0/WSe2.q_12/WSe2.save/charge-density

     Starting wfcs are   50 atomic wfcs

     Band Structure Calculation
     Davidson diagonalization with overlap

     ethr =  2.50E-11,  avg # of iterations = 15.1

     End of band structure calculation

     Number of k-points >= 100: set verbosity='high' to print the bands.

     highest occupied level (ev):     1.2874

     Writing output data file ./_ph0/WSe2.q_12/WSe2.save/

     --

     bravais-lattice index     =            0
     lattice parameter (alat)  =       6.2768  a.u.
     unit-cell volume          =    1289.5566 (a.u.)^3
     number of atoms/cell      =            3
     number of atomic types    =            2
     kinetic-energy cut-off    =      85.0000  Ry
     charge density cut-off    =     340.0000  Ry
     convergence threshold     =      1.0E-15
     beta                      =       0.7000
     number of iterations used =            4
     Exchange-correlation= PBE
                           (   1   4   3   4   0   0   0)
     Non magnetic calculation with spin-orbit

     celldm(1)=    6.27683  celldm(2)=    0.00000  celldm(3)=    0.00000
     celldm(4)=    0.00000  celldm(5)=    0.00000  celldm(6)=    0.00000

     crystal axes: (cart. coord. in units of alat)
               a(1) = (  1.0000  0.0000  0.0000 )
               a(2) = ( -0.5000  0.8660  0.0000 )
               a(3) = (  0.0000  0.0000  6.0213 )

     reciprocal axes: (cart. coord. in units 2 pi/alat)
               b(1) = (  1.0000  0.5774  0.0000 )
               b(2) = (  0.0000  1.1547  0.0000 )
               b(3) = (  0.0000  0.0000  0.1661 )

     Atoms inside the unit cell:

     Cartesian axes

     site n.  atom      mass           positions (alat units)
        1     W  183.8400   tau(    1) = (   -0.00000    0.57735    1.03395  )
        2     Se  78.9600   tau(    2) = (    0.50000    0.28868    1.54006  )
        3     Se  78.9600   tau(    3) = (    0.50000    0.28868    0.52781  )

     Computing dynamical matrix for
                    q = (   0.3333333   0.5773503   0.0000000 )

      3 Sym.Ops. (no q -> -q+G )

     G cutoff =  339.3128  (    993 G-vectors)     FFT grid: ( 40, 40,225)
     number of k points=   154

     PseudoPot. # 1 for W  read from file:
     ./pp/W.upf
     MD5 check sum: db67cb0d1e4258a1e3a8a357a2b3a3f2
     Pseudo is Norm-conserving, Zval = 28.0
     Generated using ONCVPSP code by D. R. Hamann
     Using radial grid of 1396 points, 14 beta functions with:
                l(1) =   0
                l(2) =   0
                l(3) =   1
                l(4) =   1
                l(5) =   1
                l(6) =   1
                l(7) =   2
                l(8) =   2
                l(9) =   2
               l(10) =   2
               l(11) =   3
               l(12) =   3
               l(13) =   3
               l(14) =   3

     PseudoPot. # 2 for Se read from file:
     ./pp/Se.upf
     MD5 check sum: cfe1483cd39788255e734f67871220b5
     Pseudo is Norm-conserving, Zval =  6.0
     Generated using ONCVPSP code by D. R. Hamann
     Using radial grid of 1214 points, 10 beta functions with:
                l(1) =   0
                l(2) =   0
                l(3) =   1
                l(4) =   1
                l(5) =   1
                l(6) =   1
                l(7) =   2
                l(8) =   2
                l(9) =   2
               l(10) =   2

[...]

     Atomic displacements:
     There are    9 irreducible representations

[...]

     Representation     9      1 modes -  To be done

     Alpha used in Ewald sum =   2.8000

[...]

     Representation #   9 mode #   9

     Self-consistent Calculation

[...]

      thresh= 2.190E-08 alpha_mix =  0.700 |ddv_scf|^2 =  3.035E-17

     End of self-consistent calculation

     Convergence has been achieved

     Number of q in the star =    2
     List of q in the star:
          1   0.333333333   0.577350269   0.000000000
          2  -0.333333333   0.577350269   0.000000000

     Diagonalizing the dynamical matrix

     q = (    0.333333333   0.577350269   0.000000000 )

     freq (    1) =       2.824375 [THz] =      94.211005 [cm-1]
     freq (    2) =       3.605272 [THz] =     120.258932 [cm-1]
     freq (    3) =       4.042188 [THz] =     134.832892 [cm-1]
     freq (    4) =       5.930106 [THz] =     197.807039 [cm-1]
     freq (    5) =       6.132291 [THz] =     204.551217 [cm-1]
     freq (    6) =       6.170079 [THz] =     205.811697 [cm-1]
     freq (    7) =       7.287230 [THz] =     243.075816 [cm-1]
     freq (    8) =       7.311003 [THz] =     243.868795 [cm-1]
     freq (    9) =       7.453559 [THz] =     248.623981 [cm-1]

     Mode symmetry, C_3 (3)     point group:

     freq (   1-   1) =         94.2  [cm-1]   --> E
     freq (   2-   2) =        120.3  [cm-1]   --> E*
     freq (   3-   3) =        134.8  [cm-1]   --> A
     freq (   4-   4) =        197.8  [cm-1]   --> E
     freq (   5-   5) =        204.6  [cm-1]   --> E*
     freq (   6-   6) =        205.8  [cm-1]   --> A
     freq (   7-   7) =        243.1  [cm-1]   --> E*
     freq (   8-   8) =        243.9  [cm-1]   --> A
     freq (   9-   9) =        248.6  [cm-1]   --> E

     General routines

     Parallel routines

     INITIALIZATION:

     DYNAMICAL MATRIX:

      General routines

   This run was terminated on:   5:16:14  17Oct2023

   JOB DONE.
TACC:  Shutdown complete. Exiting.